RT is False
Default write of storage_offers_DA.csv just to have a file (but constraint should be inactive)
Reading model...
...model read.
creating competitive generators file...
...competitive generators recorded.
Loading data...
.. day-ahead data with real-time VRE data read.
Compiling instance...
...instance created.
Creating Offer Mitigation (model will solve as dispatch if TRUE)...
NOTE: storage offers will not be mitigated
...storage offer mitigation file created
Converting model to MPEC...
...converted
NOTE: initial MIP solve with only storage competitive to get feasible solution
Solving...

Welcome to IBM(R) ILOG(R) CPLEX(R) Interactive Optimizer 12.9.0.0
  with Simplex, Mixed Integer & Barrier Optimizers
5725-A06 5725-A29 5724-Y48 5724-Y49 5724-Y54 5724-Y55 5655-Y21
Copyright IBM Corp. 1988, 2019.  All Rights Reserved.

Type 'help' for a list of available commands.
Type 'help' followed by a command name for more
information on commands.

CPLEX> Logfile 'cplex.log' closed.
Logfile 'C:\Users\llavin\Desktop\test919\logs\tmpmsgc0wz2.cplex.log' open.
CPLEX> New value for parallel optimization mode: -1
CPLEX> New value for mixed integer optimality gap tolerance: 0.01
CPLEX> New value for integrality tolerance: 1e-09
CPLEX> New value for feasibility tolerance: 0.1
CPLEX> New value for deterministic time limit in ticks: 100000
CPLEX> Problem 'C:\Users\llavin\Desktop\test919\logs\tmplxzdsgmt.pyomo.lp' read.
Read time = 0.23 sec. (13.86 ticks)
CPLEX> Problem name         : C:\Users\llavin\Desktop\test919\logs\tmplxzdsgmt.pyomo.lp
Objective sense      : Maximize
Variables            :   53321  [Nneg: 1,  Box: 21806,  Free: 4416,
                                 Binary: 27098]
Objective nonzeros   :    8978
Linear constraints   :  122164  [Less: 40983,  Greater: 58612,  Equal: 22569]
  Nonzeros           :  288503
  RHS nonzeros       :   66980

Variables            : Min LB: -5000.000        Max UB: 1000000.       
Objective nonzeros   : Min   : 0.008333333      Max   : 723.7333       
Linear constraints   :
  Nonzeros           : Min   : 0.008333333      Max   : 1000000.       
  RHS nonzeros       : Min   : 0.008333333      Max   : 1000000.       
CPLEX> CPXPARAM_Parallel                                -1
CPXPARAM_Simplex_Tolerances_Feasibility          0.10000000000000001
CPXPARAM_DetTimeLimit                            100000
CPXPARAM_MIP_Tolerances_MIPGap                   0.01
CPXPARAM_MIP_Tolerances_Integrality              1.0000000000000001e-09
Tried aggregator 3 times.
MIP Presolve eliminated 88103 rows and 18959 columns.
MIP Presolve added 3374 rows and 0 columns.
MIP Presolve modified 22852 coefficients.
Aggregator did 12868 substitutions.
Reduced MIP has 24567 rows, 20938 columns, and 68813 nonzeros.
Reduced MIP has 8283 binaries, 0 generals, 0 SOSs, and 0 indicators.
Presolve time = 0.30 sec. (176.00 ticks)
Probing fixed 457 vars, tightened 2914 bounds.
Probing time = 1.22 sec. (896.43 ticks)
Tried aggregator 2 times.
MIP Presolve eliminated 1023 rows and 921 columns.
MIP Presolve modified 2188 coefficients.
Aggregator did 55 substitutions.
Reduced MIP has 23489 rows, 19962 columns, and 65666 nonzeros.
Reduced MIP has 7824 binaries, 0 generals, 0 SOSs, and 0 indicators.
Presolve time = 0.11 sec. (68.16 ticks)
Probing time = 0.05 sec. (15.41 ticks)
Clique table members: 6142.
MIP emphasis: balance optimality and feasibility.
MIP search method: dynamic search.
Parallel mode: opportunistic, using up to 32 threads.
Root relaxation solution time = 0.47 sec. (530.65 ticks)

        Nodes                                         Cuts/
   Node  Left     Objective  IInf  Best Integer    Best Bound    ItCnt     Gap

      0     0     3146.7930   910                   3146.7930     6759         
      0     0     3146.7930   892                   Cuts: 789     7083         
      0     0     3146.1666   722                   Cuts: 543     7305         
      0     0     3144.4588   650                   Cuts: 300     7402         
      0     0     3144.4588   595                   Cuts: 194     7471         
      0     0     3144.4588   569                   Cuts: 142     7502         
      0     0     3144.4588   559                   Cuts: 112     7514         
      0     0     3144.4588   548                   Cuts: 122     7529         
      0     0     3142.8871   549                   Cuts: 103     7542         
      0     0     3142.2442   549                    Cuts: 85     7544         
      0     0     3142.2442   548                    Cuts: 86     7548         
      0     0     3142.2442   548                    Cuts: 80     7548         
      0    14    infeasible                           Cuts: 5     7945         
Elapsed time = 11.00 sec. (6744.05 ticks, tree = 0.02 MB, solutions = 0)
    202    76     2909.2193   536                   3122.2832     8219         
    746   150     2757.1970   513                   3122.2832     8527         
   1369  1406     2178.5524   501                   3122.2832    15837         
   2254   625      837.1726   514                   3122.2832    11066         
   3449  1315     2909.2193   489                   3122.2832    15184         
   4823  3613     2546.3972   489                   3122.2832    21303         
   6042  3445     2907.7983   485                   3122.2832    21064         
   7177  3982     1749.9006   475                   3122.2832    21371         
   8324  8351     2178.5524   487                   3122.2832    23351         
* 11810+ 1779                         1992.7172     3122.2832            56.68%
Elapsed time = 29.23 sec. (9671.01 ticks, tree = 9.31 MB, solutions = 2)
* 12927  9979      integral     0     2067.9930     3122.2832    29094   50.98%
  15846  1890     3122.2832   446     2067.9930     3122.2832    29795   50.98%
* 16220  9987      integral     0     3230.2809     3122.2832    29119   -3.34%

Clique cuts applied:  22
Implied bound cuts applied:  70
Flow cuts applied:  647
Mixed integer rounding cuts applied:  55
Gomory fractional cuts applied:  48

Root node processing (before b&c):
  Real time             =    9.67 sec. (6735.19 ticks)
Parallel b&c, 32 threads:
  Real time             =   21.92 sec. (4159.42 ticks)
  Sync time (average)   =    0.84 sec.
  Wait time (average)   =    0.00 sec.
                          ------------
Total (root+branch&cut) =   31.59 sec. (10894.61 ticks)

Solution pool: 4 solutions saved.

MIP - Integer optimal solution:  Objective =  3.2302809008e+03
Solution time =   31.61 sec.  Iterations = 31022  Nodes = 16323
Deterministic time = 10894.77 ticks  (344.67 ticks/sec)

CPLEX> Incumbent solution written to file 'C:\Users\llavin\Desktop\test919\logs\tmpcid63d1a.cplex.sol'.
CPLEX> NOTE: no warmstart specified for MIP iteration, default behavior is true
NOTE: resolving with all competitive generators using storage-only solution to warmstart
Solving...

Welcome to IBM(R) ILOG(R) CPLEX(R) Interactive Optimizer 12.9.0.0
  with Simplex, Mixed Integer & Barrier Optimizers
5725-A06 5725-A29 5724-Y48 5724-Y49 5724-Y54 5724-Y55 5655-Y21
Copyright IBM Corp. 1988, 2019.  All Rights Reserved.

Type 'help' for a list of available commands.
Type 'help' followed by a command name for more
information on commands.

CPLEX> Logfile 'cplex.log' closed.
Logfile 'C:\Users\llavin\Desktop\test919\logs\tmpifqo6zr8.cplex.log' open.
CPLEX> New value for parallel optimization mode: -1
CPLEX> New value for mixed integer optimality gap tolerance: 0.01
CPLEX> New value for integrality tolerance: 1e-09
CPLEX> New value for feasibility tolerance: 0.1
CPLEX> New value for deterministic time limit in ticks: 100000
CPLEX> Problem 'C:\Users\llavin\Desktop\test919\logs\tmpbpxqm4u8.pyomo.lp' read.
Read time = 0.22 sec. (13.88 ticks)
CPLEX> MIP start file 'C:\Users\llavin\Desktop\test919\logs\tmpae8igwdp.cplex.mst' read.
CPLEX> Problem name         : C:\Users\llavin\Desktop\test919\logs\tmpbpxqm4u8.pyomo.lp
Objective sense      : Maximize
Variables            :   54041  [Nneg: 1,  Box: 22526,  Free: 4416,
                                 Binary: 27098]
Objective nonzeros   :    9698
Linear constraints   :  122164  [Less: 40983,  Greater: 58612,  Equal: 22569]
  Nonzeros           :  288503
  RHS nonzeros       :   66980

Variables            : Min LB: -5000.000        Max UB: 1000000.       
Objective nonzeros   : Min   : 0.008333333      Max   : 723.7333       
Linear constraints   :
  Nonzeros           : Min   : 0.008333333      Max   : 1000000.       
  RHS nonzeros       : Min   : 0.008333333      Max   : 1000000.       
CPLEX> CPXPARAM_Parallel                                -1
CPXPARAM_Simplex_Tolerances_Feasibility          0.10000000000000001
CPXPARAM_DetTimeLimit                            100000
CPXPARAM_MIP_Tolerances_MIPGap                   0.01
CPXPARAM_MIP_Tolerances_Integrality              1.0000000000000001e-09
Warning:  No solution found from 1 MIP starts.
Retaining values of one MIP start for possible repair.
Tried aggregator 3 times.
MIP Presolve eliminated 88103 rows and 19679 columns.
MIP Presolve added 3374 rows and 0 columns.
MIP Presolve modified 22852 coefficients.
Aggregator did 12868 substitutions.
Reduced MIP has 24567 rows, 20938 columns, and 68813 nonzeros.
Reduced MIP has 8283 binaries, 0 generals, 0 SOSs, and 0 indicators.
Presolve time = 0.28 sec. (176.27 ticks)
Probing fixed 457 vars, tightened 2914 bounds.
Probing time = 1.23 sec. (896.43 ticks)
Tried aggregator 2 times.
MIP Presolve eliminated 1023 rows and 921 columns.
MIP Presolve modified 2188 coefficients.
Aggregator did 55 substitutions.
Reduced MIP has 23489 rows, 19962 columns, and 65666 nonzeros.
Reduced MIP has 7824 binaries, 0 generals, 0 SOSs, and 0 indicators.
Presolve time = 0.11 sec. (68.16 ticks)
Probing time = 0.05 sec. (15.41 ticks)
Clique table members: 6142.
MIP emphasis: balance optimality and feasibility.
MIP search method: dynamic search.
Parallel mode: opportunistic, using up to 32 threads.
Root relaxation solution time = 0.47 sec. (530.65 ticks)

        Nodes                                         Cuts/
   Node  Left     Objective  IInf  Best Integer    Best Bound    ItCnt     Gap

      0     0     3146.7930   910                   3146.7930     6759         
      0     0     3146.7930   892                   Cuts: 789     7083         
      0     0     3146.1666   722                   Cuts: 543     7305         
      0     0     3144.4588   650                   Cuts: 300     7402         
      0     0     3144.4588   595                   Cuts: 194     7471         
      0     0     3144.4588   569                   Cuts: 142     7502         
      0     0     3144.4588   559                   Cuts: 112     7514         
      0     0     3144.4588   548                   Cuts: 122     7529         
      0     0     3142.8871   549                   Cuts: 103     7542         
      0     0     3142.2442   549                    Cuts: 85     7544         
      0     0     3142.2442   548                    Cuts: 86     7548         
      0     0     3142.2442   548                    Cuts: 80     7548         
Repair heuristic found nothing.
      0    28    infeasible                           Cuts: 6     8007         
Elapsed time = 11.25 sec. (6794.10 ticks, tree = 0.02 MB, solutions = 0)
    455   155     2178.5524   529                   3122.2832     9167         
    879   700    -3119.5849   494                   3122.2832    11681         
   2061  1615   -23080.7235   504                   3122.2832    13949         
   2892  2061     1665.1290   501                   3122.2832    15468         
   3564  2960   -32231.8408   451                   3122.2832    20228         
   4225  3432     1500.0305   483                   3122.2832    23393         
   5150  3368   -39803.0337   389                   3122.2832    23024         
   6319  4430  -175945.0635   407                   3122.2832    26947         
   7712  5283   -45826.5376   375                   3122.2832    27586         
  12540  9680   -90450.2847   322                   3122.2832    29659         
Elapsed time = 28.97 sec. (9895.60 ticks, tree = 80.83 MB, solutions = 5)
* 12836+10051                       -86777.5589     3122.2832           103.60%
* 14300 10949      integral     0   -60671.9343     3122.2832    30501  105.15%
* 14739 10385      integral     0   -33449.7344     3122.2832    30184  109.33%
* 15103 11970      integral     0   -23687.4564     3122.2832    31122  113.18%
  15128  6641    infeasible         -23687.4564     3122.2832    38664  113.18%
  16012   102    -5141.8847   253   -23687.4564     3122.2832    39542  113.18%
  17635   390   -15483.3804   225   -23687.4564     3122.2832    40137  113.18%
  19296  1808    -7166.0954   192   -23687.4564     3122.2832    42871  113.18%
  21098  4015   -18723.0434   169    -7622.8435     3122.2832    46270  140.96%
* 22712  4427      integral     0     2757.6768     3122.2832    46965   13.22%
  24591  2064     3122.9371    76     2757.6768     3122.2832    64594   13.22%
  25681  1770     2876.9028   209     2757.6768     3122.2832    61689   13.22%
Elapsed time = 76.91 sec. (29105.62 ticks, tree = 35.21 MB, solutions = 12)
  26286  2711     2876.9028    66     2757.6768     3122.2832    70672   13.22%
  26701  2938        cutoff           2757.6768     3122.2832    73743   13.22%
  27042  3789     3120.8308    59     2757.6768     3122.2832    85915   13.22%
  27256  3798     3120.8308    59     2757.6768     3122.2832    85829   13.22%
  27421  3915        cutoff           2757.6768     3122.2832    88641   13.22%
  27593  4262     3120.8308    55     2757.6768     3122.2832    94585   13.22%
  27737  4102     3120.6736     2     2757.6768     3122.2832    92472   13.22%
  27858  4279     3120.8308    61     2757.6768     3122.2832    94777   13.22%
  27982  4285     3120.8308    61     2757.6768     3122.2832    94804   13.22%
  28112  4184        cutoff           2757.6768     3122.2832    93542   13.22%
Elapsed time = 91.41 sec. (38687.45 ticks, tree = 128.31 MB, solutions = 12)
  28236  4346        cutoff           2757.6768     3122.2832    95947   13.22%
  28360  4507     3120.8308    54     2757.6768     3122.2832    97085   13.22%
  28498  4438     2939.6441    52     2757.6768     3122.2832    96696   13.22%
  28631  4580        cutoff           2757.6768     3122.2832    97511   13.22%
  28764  4549     2876.9028    51     2757.6768     3122.2832    97262   13.22%
  28888  4737        cutoff           2757.6768     3122.2832    98740   13.22%
  29018  4551     3120.8308    57     2757.6768     3122.2832    97277   13.22%
  29138  4579     3120.8308    61     2757.6768     3122.2832    97494   13.22%
  29255  4795     3120.8308    55     2757.6768     3122.2832    98984   13.22%
  29374  4668     3120.8308    55     2757.6768     3122.2832    98498   13.22%
Elapsed time = 106.63 sec. (48272.98 ticks, tree = 133.74 MB, solutions = 12)
  29488  4654     2924.1917    56     2757.6768     3122.2832    98323   13.22%
  29616  4952     3120.8308    56     2757.6768     3122.2832    99379   13.22%
  29718  4877        cutoff           2757.6768     3122.2832    99189   13.22%
  29830  4852     3120.8308    61     2757.6768     3122.2832    99124   13.22%
  29945  4955     3120.8308    57     2757.6768     3122.2832    99389   13.22%
  30058  4893     3120.8308    60     2757.6768     3122.2832    99225   13.22%
  30173  5195     2939.6441    53     2757.6768     3122.2832   100100   13.22%
  30318  4961     3120.8308    61     2757.6768     3122.2832    99430   13.22%
  30493  4969     3120.6736    57     2757.6768     3122.2832    99452   13.22%
  30617  5217     3120.8308    54     2757.6768     3122.2832   100306   13.22%
Elapsed time = 121.70 sec. (57888.86 ticks, tree = 140.95 MB, solutions = 12)
  30750  5224     3122.9371    92     2757.6768     3122.2832   100354   13.22%
  30987  5171     3120.6736    58     2757.6768     3122.2832   100043   13.22%
  31176  5082     3120.8308    60     2757.6768     3122.2832    99784   13.22%
  31456  4979        cutoff           2757.6768     3122.2832    99503   13.22%
  31611  5141     3120.6736    56     2757.6768     3122.2832    99933   13.22%
  31747  5327        cutoff           2757.6768     3122.2832   101083   13.22%
  31862  5158        cutoff           2757.6768     3122.2832   100106   13.22%
  31981  5415     3120.8308    53     2757.6768     3122.2832   102483   13.22%
  32086  5422     2876.9028    52     2757.6768     3122.2832   102407   13.22%
  32197  5251        cutoff           2757.6768     3122.2832   100434   13.22%
Elapsed time = 139.11 sec. (67469.04 ticks, tree = 140.12 MB, solutions = 12)
  32313  5437        cutoff           2757.6768     3122.2832   102606   13.22%
  32415  5440     3032.8372    54     2757.6768     3122.2832   102611   13.22%
  32523  5658     3120.6736    59     2757.6768     3122.2832   104410   13.22%
  32613  5650        cutoff           2757.6768     3122.2832   104533   13.22%
  32717  6247     2939.6441    51     2757.6768     3122.2832   109293   13.22%
  32809  5898        cutoff           2757.6768     3122.2832   106347   13.22%
  32903  6247     2939.6441    51     2757.6768     3122.2832   109296   13.22%
  32998  5963        cutoff           2757.6768     3122.2832   106950   13.22%
  33071  6166     2876.9028    53     2757.6768     3122.2832   108296   13.22%
  33160  6249     2939.6441    51     2757.6768     3122.2832   109301   13.22%
Elapsed time = 151.59 sec. (77127.94 ticks, tree = 151.72 MB, solutions = 12)
  33234  6029        cutoff           2757.6768     3122.2832   107489   13.22%
  33323  6349     3120.8308    55     2757.6768     3122.2832   110258   13.22%
  33403  6485     3120.8308    57     2757.6768     3122.2832   111604   13.22%
  33485  6278        cutoff           2757.6768     3122.2832   109548   13.22%
  33564  6079     3120.8308    58     2757.6768     3122.2832   107881   13.22%
  33647  6359        cutoff           2757.6768     3122.2832   110416   13.22%
  33721  6528        cutoff           2757.6768     3122.2832   112199   13.22%
  33785  6307     3120.8308    56     2757.6768     3122.2832   109905   13.22%
  33851  6375     3120.8308    62     2757.6768     3122.2832   110534   13.22%
  33907  6352     3120.8308    55     2757.6768     3122.2832   110268   13.22%
Elapsed time = 156.52 sec. (86774.17 ticks, tree = 154.15 MB, solutions = 12)
  33979  6353     3120.8308    55     2757.6768     3122.2832   110270   13.22%
  34032  6440     2924.1917    54     2757.6768     3122.2832   111258   13.22%
  34091  6439        cutoff           2757.6768     3122.2832   111258   13.22%
  34147  6541     2876.9028    53     2757.6768     3122.2832   112239   13.22%
  34191  6463        cutoff           2757.6768     3122.2832   111539   13.22%
  34231  6517        cutoff           2757.6768     3122.2832   111985   13.22%
  34271  6505        cutoff           2757.6768     3122.2832   111811   13.22%
  34296  6514     3120.8308    62     2757.6768     3122.2832   111827   13.22%
  34325  6544     2876.9028    54     2757.6768     3122.2832   112247   13.22%
  34349  6547        cutoff           2757.6768     3122.2832   112337   13.22%
Elapsed time = 162.20 sec. (96632.56 ticks, tree = 155.58 MB, solutions = 12)
  34367  6564     3120.8308    57     2757.6768     3122.2832   112491   13.22%
  34390  6566        cutoff           2757.6768     3122.2832   112497   13.22%
  34410  6571        cutoff           2757.6768     3122.2832   112507   13.22%

GUB cover cuts applied:  2
Clique cuts applied:  9
Cover cuts applied:  5
Implied bound cuts applied:  12
Flow cuts applied:  363
Mixed integer rounding cuts applied:  26
Gomory fractional cuts applied:  81

Root node processing (before b&c):
  Real time             =    9.77 sec. (6773.31 ticks)
Parallel b&c, 32 threads:
  Real time             =  154.67 sec. (93737.39 ticks)
  Sync time (average)   =    2.11 sec.
  Wait time (average)   =    0.34 sec.
                          ------------
Total (root+branch&cut) =  164.44 sec. (100510.70 ticks)

Solution pool: 12 solutions saved.

MIP - Deterministic time limit exceeded, integer feasible:  Objective =  2.7576768020e+03
Current MIP best bound =  3.1222832302e+03 (gap = 364.606, 13.22%)
Solution time =  164.47 sec.  Iterations = 114002  Nodes = 34411 (6839)
Deterministic time = 100510.85 ticks  (611.13 ticks/sec)

CPLEX> Incumbent solution written to file 'C:\Users\llavin\Desktop\test919\logs\tmp5n4jhqoz.cplex.sol'.
CPLEX> Exporting results... 
